NAME: ACTUAL_TOURS/amz2686
TYPE: TOUR
COMMENT: RouteID_6ba84f59-f028-4d59-9030-1c574dbff22d
DIMENSION: 154
TOUR_SECTION
111
45
153
1
144
105
50
122
25
149
152
42
110
141
148
100
57
3
27
114
41
101
125
59
127
63
49
75
154
40
66
143
106
35
146
70
4
43
98
32
77
116
142
67
31
71
68
56
134
39
62
11
52
91
7
129
72
65
80
123
136
138
145
151
60
124
18
117
8
37
133
120
81
5
118
13
19
6
20
30
78
140
90
46
96
2
36
115
28
94
58
74
69
132
21
108
26
44
84
92
93
102
113
88
147
38
121
126
99
29
97
119
83
24
76
89
135
12
87
64
85
34
95
73
55
9
139
130
112
109
16
33
150
17
14
82
131
107
137
15
54
128
103
61
51
48
104
22
79
53
10
86
47
23
-1
EOF
